9165
1 1 1 1 1 0 1 0 0 1 
9 2 9 2 2 2 2 2 2 2 2 2 2 2 2 2 2 2 2 1 1 1 1 3 1 1 3 3 3 3 3 3 3 3 3 3 3 3 3 6 6 6 3 6 6 3 3 3 3 3 3 3 6 6 6 6 4 6 6 6 6 6 4 6 0 6 6 6 6 0 0 0 0 4 2 0 0 0 0 0 0 4 0 4 4 4 4 4 4 4 4 9 4 9 4 9 9 4 9 9 
